<instance format="XCSP3" type="COP">
  <variables>
    <array id="x" size="[35]"> -1 1 </array>
    <array id="y" size="[34][34]"> -1 1 </array>
    <array id="c" size="[34]">
      <domain for="c[0]"> -34..34 </domain>
      <domain for="c[1]"> -33..33 </domain>
      <domain for="c[2]"> -32..32 </domain>
      <domain for="c[3]"> -31..31 </domain>
      <domain for="c[4]"> -30..30 </domain>
      <domain for="c[5]"> -29..29 </domain>
      <domain for="c[6]"> -28..28 </domain>
      <domain for="c[7]"> -27..27 </domain>
      <domain for="c[8]"> -26..26 </domain>
      <domain for="c[9]"> -25..25 </domain>
      <domain for="c[10]"> -24..24 </domain>
      <domain for="c[11]"> -23..23 </domain>
      <domain for="c[12]"> -22..22 </domain>
      <domain for="c[13]"> -21..21 </domain>
      <domain for="c[14]"> -20..20 </domain>
      <domain for="c[15]"> -19..19 </domain>
      <domain for="c[16]"> -18..18 </domain>
      <domain for="c[17]"> -17..17 </domain>
      <domain for="c[18]"> -16..16 </domain>
      <domain for="c[19]"> -15..15 </domain>
      <domain for="c[20]"> -14..14 </domain>
      <domain for="c[21]"> -13..13 </domain>
      <domain for="c[22]"> -12..12 </domain>
      <domain for="c[23]"> -11..11 </domain>
      <domain for="c[24]"> -10..10 </domain>
      <domain for="c[25]"> -9..9 </domain>
      <domain for="c[26]"> -8..8 </domain>
      <domain for="c[27]"> -7..7 </domain>
      <domain for="c[28]"> -6..6 </domain>
      <domain for="c[29]"> -5..5 </domain>
      <domain for="c[30]"> -4..4 </domain>
      <domain for="c[31]"> -3..3 </domain>
      <domain for="c[32]"> -2..2 </domain>
      <domain for="c[33]"> -1..1 </domain>
    </array>
    <array id="s" size="[34]">
      <domain for="s[29]"> 0 1 4 9 16 25 </domain>
      <domain for="s[30]"> 0 1 4 9 16 </domain>
      <domain for="s[31]"> 0 1 4 9 </domain>
      <domain for="s[32]"> 0 1 4 </domain>
      <domain for="s[33]"> 0 1 </domain>
      <domain for="s[0]"> 0 1 4 9 16 25 36 49 64 81 100 121 144 169 196 225 256 289 324 361 400 441 484 529 576 625 676 729 784 841 900 961 1024 1089 1156 </domain>
      <domain for="s[1]"> 0 1 4 9 16 25 36 49 64 81 100 121 144 169 196 225 256 289 324 361 400 441 484 529 576 625 676 729 784 841 900 961 1024 1089 </domain>
      <domain for="s[2]"> 0 1 4 9 16 25 36 49 64 81 100 121 144 169 196 225 256 289 324 361 400 441 484 529 576 625 676 729 784 841 900 961 1024 </domain>
      <domain for="s[3]"> 0 1 4 9 16 25 36 49 64 81 100 121 144 169 196 225 256 289 324 361 400 441 484 529 576 625 676 729 784 841 900 961 </domain>
      <domain for="s[4]"> 0 1 4 9 16 25 36 49 64 81 100 121 144 169 196 225 256 289 324 361 400 441 484 529 576 625 676 729 784 841 900 </domain>
      <domain for="s[5]"> 0 1 4 9 16 25 36 49 64 81 100 121 144 169 196 225 256 289 324 361 400 441 484 529 576 625 676 729 784 841 </domain>
      <domain for="s[6]"> 0 1 4 9 16 25 36 49 64 81 100 121 144 169 196 225 256 289 324 361 400 441 484 529 576 625 676 729 784 </domain>
      <domain for="s[7]"> 0 1 4 9 16 25 36 49 64 81 100 121 144 169 196 225 256 289 324 361 400 441 484 529 576 625 676 729 </domain>
      <domain for="s[8]"> 0 1 4 9 16 25 36 49 64 81 100 121 144 169 196 225 256 289 324 361 400 441 484 529 576 625 676 </domain>
      <domain for="s[9]"> 0 1 4 9 16 25 36 49 64 81 100 121 144 169 196 225 256 289 324 361 400 441 484 529 576 625 </domain>
      <domain for="s[10]"> 0 1 4 9 16 25 36 49 64 81 100 121 144 169 196 225 256 289 324 361 400 441 484 529 576 </domain>
      <domain for="s[11]"> 0 1 4 9 16 25 36 49 64 81 100 121 144 169 196 225 256 289 324 361 400 441 484 529 </domain>
      <domain for="s[12]"> 0 1 4 9 16 25 36 49 64 81 100 121 144 169 196 225 256 289 324 361 400 441 484 </domain>
      <domain for="s[13]"> 0 1 4 9 16 25 36 49 64 81 100 121 144 169 196 225 256 289 324 361 400 441 </domain>
      <domain for="s[14]"> 0 1 4 9 16 25 36 49 64 81 100 121 144 169 196 225 256 289 324 361 400 </domain>
      <domain for="s[15]"> 0 1 4 9 16 25 36 49 64 81 100 121 144 169 196 225 256 289 324 361 </domain>
      <domain for="s[16]"> 0 1 4 9 16 25 36 49 64 81 100 121 144 169 196 225 256 289 324 </domain>
      <domain for="s[17]"> 0 1 4 9 16 25 36 49 64 81 100 121 144 169 196 225 256 289 </domain>
      <domain for="s[18]"> 0 1 4 9 16 25 36 49 64 81 100 121 144 169 196 225 256 </domain>
      <domain for="s[19]"> 0 1 4 9 16 25 36 49 64 81 100 121 144 169 196 225 </domain>
      <domain for="s[20]"> 0 1 4 9 16 25 36 49 64 81 100 121 144 169 196 </domain>
      <domain for="s[21]"> 0 1 4 9 16 25 36 49 64 81 100 121 144 169 </domain>
      <domain for="s[22]"> 0 1 4 9 16 25 36 49 64 81 100 121 144 </domain>
      <domain for="s[23]"> 0 1 4 9 16 25 36 49 64 81 100 121 </domain>
      <domain for="s[24]"> 0 1 4 9 16 25 36 49 64 81 100 </domain>
      <domain for="s[25]"> 0 1 4 9 16 25 36 49 64 81 </domain>
      <domain for="s[26]"> 0 1 4 9 16 25 36 49 64 </domain>
      <domain for="s[27]"> 0 1 4 9 16 25 36 49 </domain>
      <domain for="s[28]"> 0 1 4 9 16 25 36 </domain>
    </array>
  </variables>
  <constraints>
    <group>
      <intension> eq(%0,mul(%1,%2)) </intension>
      <args> y[0][0] x[0] x[1] </args>
      <args> y[0][1] x[1] x[2] </args>
      <args> y[0][2] x[2] x[3] </args>
      <args> y[0][3] x[3] x[4] </args>
      <args> y[0][4] x[4] x[5] </args>
      <args> y[0][5] x[5] x[6] </args>
      <args> y[0][6] x[6] x[7] </args>
      <args> y[0][7] x[7] x[8] </args>
      <args> y[0][8] x[8] x[9] </args>
      <args> y[0][9] x[9] x[10] </args>
      <args> y[0][10] x[10] x[11] </args>
      <args> y[0][11] x[11] x[12] </args>
      <args> y[0][12] x[12] x[13] </args>
      <args> y[0][13] x[13] x[14] </args>
      <args> y[0][14] x[14] x[15] </args>
      <args> y[0][15] x[15] x[16] </args>
      <args> y[0][16] x[16] x[17] </args>
      <args> y[0][17] x[17] x[18] </args>
      <args> y[0][18] x[18] x[19] </args>
      <args> y[0][19] x[19] x[20] </args>
      <args> y[0][20] x[20] x[21] </args>
      <args> y[0][21] x[21] x[22] </args>
      <args> y[0][22] x[22] x[23] </args>
      <args> y[0][23] x[23] x[24] </args>
      <args> y[0][24] x[24] x[25] </args>
      <args> y[0][25] x[25] x[26] </args>
      <args> y[0][26] x[26] x[27] </args>
      <args> y[0][27] x[27] x[28] </args>
      <args> y[0][28] x[28] x[29] </args>
      <args> y[0][29] x[29] x[30] </args>
      <args> y[0][30] x[30] x[31] </args>
      <args> y[0][31] x[31] x[32] </args>
      <args> y[0][32] x[32] x[33] </args>
      <args> y[0][33] x[33] x[34] </args>
      <args> y[1][0] x[0] x[2] </args>
      <args> y[1][1] x[1] x[3] </args>
      <args> y[1][2] x[2] x[4] </args>
      <args> y[1][3] x[3] x[5] </args>
      <args> y[1][4] x[4] x[6] </args>
      <args> y[1][5] x[5] x[7] </args>
      <args> y[1][6] x[6] x[8] </args>
      <args> y[1][7] x[7] x[9] </args>
      <args> y[1][8] x[8] x[10] </args>
      <args> y[1][9] x[9] x[11] </args>
      <args> y[1][10] x[10] x[12] </args>
      <args> y[1][11] x[11] x[13] </args>
      <args> y[1][12] x[12] x[14] </args>
      <args> y[1][13] x[13] x[15] </args>
      <args> y[1][14] x[14] x[16] </args>
      <args> y[1][15] x[15] x[17] </args>
      <args> y[1][16] x[16] x[18] </args>
      <args> y[1][17] x[17] x[19] </args>
      <args> y[1][18] x[18] x[20] </args>
      <args> y[1][19] x[19] x[21] </args>
      <args> y[1][20] x[20] x[22] </args>
      <args> y[1][21] x[21] x[23] </args>
      <args> y[1][22] x[22] x[24] </args>
      <args> y[1][23] x[23] x[25] </args>
      <args> y[1][24] x[24] x[26] </args>
      <args> y[1][25] x[25] x[27] </args>
      <args> y[1][26] x[26] x[28] </args>
      <args> y[1][27] x[27] x[29] </args>
      <args> y[1][28] x[28] x[30] </args>
      <args> y[1][29] x[29] x[31] </args>
      <args> y[1][30] x[30] x[32] </args>
      <args> y[1][31] x[31] x[33] </args>
      <args> y[1][32] x[32] x[34] </args>
      <args> y[2][0] x[0] x[3] </args>
      <args> y[2][1] x[1] x[4] </args>
      <args> y[2][2] x[2] x[5] </args>
      <args> y[2][3] x[3] x[6] </args>
      <args> y[2][4] x[4] x[7] </args>
      <args> y[2][5] x[5] x[8] </args>
      <args> y[2][6] x[6] x[9] </args>
      <args> y[2][7] x[7] x[10] </args>
      <args> y[2][8] x[8] x[11] </args>
      <args> y[2][9] x[9] x[12] </args>
      <args> y[2][10] x[10] x[13] </args>
      <args> y[2][11] x[11] x[14] </args>
      <args> y[2][12] x[12] x[15] </args>
      <args> y[2][13] x[13] x[16] </args>
      <args> y[2][14] x[14] x[17] </args>
      <args> y[2][15] x[15] x[18] </args>
      <args> y[2][16] x[16] x[19] </args>
      <args> y[2][17] x[17] x[20] </args>
      <args> y[2][18] x[18] x[21] </args>
      <args> y[2][19] x[19] x[22] </args>
      <args> y[2][20] x[20] x[23] </args>
      <args> y[2][21] x[21] x[24] </args>
      <args> y[2][22] x[22] x[25] </args>
      <args> y[2][23] x[23] x[26] </args>
      <args> y[2][24] x[24] x[27] </args>
      <args> y[2][25] x[25] x[28] </args>
      <args> y[2][26] x[26] x[29] </args>
      <args> y[2][27] x[27] x[30] </args>
      <args> y[2][28] x[28] x[31] </args>
      <args> y[2][29] x[29] x[32] </args>
      <args> y[2][30] x[30] x[33] </args>
      <args> y[2][31] x[31] x[34] </args>
      <args> y[3][0] x[0] x[4] </args>
      <args> y[3][1] x[1] x[5] </args>
      <args> y[3][2] x[2] x[6] </args>
      <args> y[3][3] x[3] x[7] </args>
      <args> y[3][4] x[4] x[8] </args>
      <args> y[3][5] x[5] x[9] </args>
      <args> y[3][6] x[6] x[10] </args>
      <args> y[3][7] x[7] x[11] </args>
      <args> y[3][8] x[8] x[12] </args>
      <args> y[3][9] x[9] x[13] </args>
      <args> y[3][10] x[10] x[14] </args>
      <args> y[3][11] x[11] x[15] </args>
      <args> y[3][12] x[12] x[16] </args>
      <args> y[3][13] x[13] x[17] </args>
      <args> y[3][14] x[14] x[18] </args>
      <args> y[3][15] x[15] x[19] </args>
      <args> y[3][16] x[16] x[20] </args>
      <args> y[3][17] x[17] x[21] </args>
      <args> y[3][18] x[18] x[22] </args>
      <args> y[3][19] x[19] x[23] </args>
      <args> y[3][20] x[20] x[24] </args>
      <args> y[3][21] x[21] x[25] </args>
      <args> y[3][22] x[22] x[26] </args>
      <args> y[3][23] x[23] x[27] </args>
      <args> y[3][24] x[24] x[28] </args>
      <args> y[3][25] x[25] x[29] </args>
      <args> y[3][26] x[26] x[30] </args>
      <args> y[3][27] x[27] x[31] </args>
      <args> y[3][28] x[28] x[32] </args>
      <args> y[3][29] x[29] x[33] </args>
      <args> y[3][30] x[30] x[34] </args>
      <args> y[4][0] x[0] x[5] </args>
      <args> y[4][1] x[1] x[6] </args>
      <args> y[4][2] x[2] x[7] </args>
      <args> y[4][3] x[3] x[8] </args>
      <args> y[4][4] x[4] x[9] </args>
      <args> y[4][5] x[5] x[10] </args>
      <args> y[4][6] x[6] x[11] </args>
      <args> y[4][7] x[7] x[12] </args>
      <args> y[4][8] x[8] x[13] </args>
      <args> y[4][9] x[9] x[14] </args>
      <args> y[4][10] x[10] x[15] </args>
      <args> y[4][11] x[11] x[16] </args>
      <args> y[4][12] x[12] x[17] </args>
      <args> y[4][13] x[13] x[18] </args>
      <args> y[4][14] x[14] x[19] </args>
      <args> y[4][15] x[15] x[20] </args>
      <args> y[4][16] x[16] x[21] </args>
      <args> y[4][17] x[17] x[22] </args>
      <args> y[4][18] x[18] x[23] </args>
      <args> y[4][19] x[19] x[24] </args>
      <args> y[4][20] x[20] x[25] </args>
      <args> y[4][21] x[21] x[26] </args>
      <args> y[4][22] x[22] x[27] </args>
      <args> y[4][23] x[23] x[28] </args>
      <args> y[4][24] x[24] x[29] </args>
      <args> y[4][25] x[25] x[30] </args>
      <args> y[4][26] x[26] x[31] </args>
      <args> y[4][27] x[27] x[32] </args>
      <args> y[4][28] x[28] x[33] </args>
      <args> y[4][29] x[29] x[34] </args>
      <args> y[5][0] x[0] x[6] </args>
      <args> y[5][1] x[1] x[7] </args>
      <args> y[5][2] x[2] x[8] </args>
      <args> y[5][3] x[3] x[9] </args>
      <args> y[5][4] x[4] x[10] </args>
      <args> y[5][5] x[5] x[11] </args>
      <args> y[5][6] x[6] x[12] </args>
      <args> y[5][7] x[7] x[13] </args>
      <args> y[5][8] x[8] x[14] </args>
      <args> y[5][9] x[9] x[15] </args>
      <args> y[5][10] x[10] x[16] </args>
      <args> y[5][11] x[11] x[17] </args>
      <args> y[5][12] x[12] x[18] </args>
      <args> y[5][13] x[13] x[19] </args>
      <args> y[5][14] x[14] x[20] </args>
      <args> y[5][15] x[15] x[21] </args>
      <args> y[5][16] x[16] x[22] </args>
      <args> y[5][17] x[17] x[23] </args>
      <args> y[5][18] x[18] x[24] </args>
      <args> y[5][19] x[19] x[25] </args>
      <args> y[5][20] x[20] x[26] </args>
      <args> y[5][21] x[21] x[27] </args>
      <args> y[5][22] x[22] x[28] </args>
      <args> y[5][23] x[23] x[29] </args>
      <args> y[5][24] x[24] x[30] </args>
      <args> y[5][25] x[25] x[31] </args>
      <args> y[5][26] x[26] x[32] </args>
      <args> y[5][27] x[27] x[33] </args>
      <args> y[5][28] x[28] x[34] </args>
      <args> y[6][0] x[0] x[7] </args>
      <args> y[6][1] x[1] x[8] </args>
      <args> y[6][2] x[2] x[9] </args>
      <args> y[6][3] x[3] x[10] </args>
      <args> y[6][4] x[4] x[11] </args>
      <args> y[6][5] x[5] x[12] </args>
      <args> y[6][6] x[6] x[13] </args>
      <args> y[6][7] x[7] x[14] </args>
      <args> y[6][8] x[8] x[15] </args>
      <args> y[6][9] x[9] x[16] </args>
      <args> y[6][10] x[10] x[17] </args>
      <args> y[6][11] x[11] x[18] </args>
      <args> y[6][12] x[12] x[19] </args>
      <args> y[6][13] x[13] x[20] </args>
      <args> y[6][14] x[14] x[21] </args>
      <args> y[6][15] x[15] x[22] </args>
      <args> y[6][16] x[16] x[23] </args>
      <args> y[6][17] x[17] x[24] </args>
      <args> y[6][18] x[18] x[25] </args>
      <args> y[6][19] x[19] x[26] </args>
      <args> y[6][20] x[20] x[27] </args>
      <args> y[6][21] x[21] x[28] </args>
      <args> y[6][22] x[22] x[29] </args>
      <args> y[6][23] x[23] x[30] </args>
      <args> y[6][24] x[24] x[31] </args>
      <args> y[6][25] x[25] x[32] </args>
      <args> y[6][26] x[26] x[33] </args>
      <args> y[6][27] x[27] x[34] </args>
      <args> y[7][0] x[0] x[8] </args>
      <args> y[7][1] x[1] x[9] </args>
      <args> y[7][2] x[2] x[10] </args>
      <args> y[7][3] x[3] x[11] </args>
      <args> y[7][4] x[4] x[12] </args>
      <args> y[7][5] x[5] x[13] </args>
      <args> y[7][6] x[6] x[14] </args>
      <args> y[7][7] x[7] x[15] </args>
      <args> y[7][8] x[8] x[16] </args>
      <args> y[7][9] x[9] x[17] </args>
      <args> y[7][10] x[10] x[18] </args>
      <args> y[7][11] x[11] x[19] </args>
      <args> y[7][12] x[12] x[20] </args>
      <args> y[7][13] x[13] x[21] </args>
      <args> y[7][14] x[14] x[22] </args>
      <args> y[7][15] x[15] x[23] </args>
      <args> y[7][16] x[16] x[24] </args>
      <args> y[7][17] x[17] x[25] </args>
      <args> y[7][18] x[18] x[26] </args>
      <args> y[7][19] x[19] x[27] </args>
      <args> y[7][20] x[20] x[28] </args>
      <args> y[7][21] x[21] x[29] </args>
      <args> y[7][22] x[22] x[30] </args>
      <args> y[7][23] x[23] x[31] </args>
      <args> y[7][24] x[24] x[32] </args>
      <args> y[7][25] x[25] x[33] </args>
      <args> y[7][26] x[26] x[34] </args>
      <args> y[8][0] x[0] x[9] </args>
      <args> y[8][1] x[1] x[10] </args>
      <args> y[8][2] x[2] x[11] </args>
      <args> y[8][3] x[3] x[12] </args>
      <args> y[8][4] x[4] x[13] </args>
      <args> y[8][5] x[5] x[14] </args>
      <args> y[8][6] x[6] x[15] </args>
      <args> y[8][7] x[7] x[16] </args>
      <args> y[8][8] x[8] x[17] </args>
      <args> y[8][9] x[9] x[18] </args>
      <args> y[8][10] x[10] x[19] </args>
      <args> y[8][11] x[11] x[20] </args>
      <args> y[8][12] x[12] x[21] </args>
      <args> y[8][13] x[13] x[22] </args>
      <args> y[8][14] x[14] x[23] </args>
      <args> y[8][15] x[15] x[24] </args>
      <args> y[8][16] x[16] x[25] </args>
      <args> y[8][17] x[17] x[26] </args>
      <args> y[8][18] x[18] x[27] </args>
      <args> y[8][19] x[19] x[28] </args>
      <args> y[8][20] x[20] x[29] </args>
      <args> y[8][21] x[21] x[30] </args>
      <args> y[8][22] x[22] x[31] </args>
      <args> y[8][23] x[23] x[32] </args>
      <args> y[8][24] x[24] x[33] </args>
      <args> y[8][25] x[25] x[34] </args>
      <args> y[9][0] x[0] x[10] </args>
      <args> y[9][1] x[1] x[11] </args>
      <args> y[9][2] x[2] x[12] </args>
      <args> y[9][3] x[3] x[13] </args>
      <args> y[9][4] x[4] x[14] </args>
      <args> y[9][5] x[5] x[15] </args>
      <args> y[9][6] x[6] x[16] </args>
      <args> y[9][7] x[7] x[17] </args>
      <args> y[9][8] x[8] x[18] </args>
      <args> y[9][9] x[9] x[19] </args>
      <args> y[9][10] x[10] x[20] </args>
      <args> y[9][11] x[11] x[21] </args>
      <args> y[9][12] x[12] x[22] </args>
      <args> y[9][13] x[13] x[23] </args>
      <args> y[9][14] x[14] x[24] </args>
      <args> y[9][15] x[15] x[25] </args>
      <args> y[9][16] x[16] x[26] </args>
      <args> y[9][17] x[17] x[27] </args>
      <args> y[9][18] x[18] x[28] </args>
      <args> y[9][19] x[19] x[29] </args>
      <args> y[9][20] x[20] x[30] </args>
      <args> y[9][21] x[21] x[31] </args>
      <args> y[9][22] x[22] x[32] </args>
      <args> y[9][23] x[23] x[33] </args>
      <args> y[9][24] x[24] x[34] </args>
      <args> y[10][0] x[0] x[11] </args>
      <args> y[10][1] x[1] x[12] </args>
      <args> y[10][2] x[2] x[13] </args>
      <args> y[10][3] x[3] x[14] </args>
      <args> y[10][4] x[4] x[15] </args>
      <args> y[10][5] x[5] x[16] </args>
      <args> y[10][6] x[6] x[17] </args>
      <args> y[10][7] x[7] x[18] </args>
      <args> y[10][8] x[8] x[19] </args>
      <args> y[10][9] x[9] x[20] </args>
      <args> y[10][10] x[10] x[21] </args>
      <args> y[10][11] x[11] x[22] </args>
      <args> y[10][12] x[12] x[23] </args>
      <args> y[10][13] x[13] x[24] </args>
      <args> y[10][14] x[14] x[25] </args>
      <args> y[10][15] x[15] x[26] </args>
      <args> y[10][16] x[16] x[27] </args>
      <args> y[10][17] x[17] x[28] </args>
      <args> y[10][18] x[18] x[29] </args>
      <args> y[10][19] x[19] x[30] </args>
      <args> y[10][20] x[20] x[31] </args>
      <args> y[10][21] x[21] x[32] </args>
      <args> y[10][22] x[22] x[33] </args>
      <args> y[10][23] x[23] x[34] </args>
      <args> y[11][0] x[0] x[12] </args>
      <args> y[11][1] x[1] x[13] </args>
      <args> y[11][2] x[2] x[14] </args>
      <args> y[11][3] x[3] x[15] </args>
      <args> y[11][4] x[4] x[16] </args>
      <args> y[11][5] x[5] x[17] </args>
      <args> y[11][6] x[6] x[18] </args>
      <args> y[11][7] x[7] x[19] </args>
      <args> y[11][8] x[8] x[20] </args>
      <args> y[11][9] x[9] x[21] </args>
      <args> y[11][10] x[10] x[22] </args>
      <args> y[11][11] x[11] x[23] </args>
      <args> y[11][12] x[12] x[24] </args>
      <args> y[11][13] x[13] x[25] </args>
      <args> y[11][14] x[14] x[26] </args>
      <args> y[11][15] x[15] x[27] </args>
      <args> y[11][16] x[16] x[28] </args>
      <args> y[11][17] x[17] x[29] </args>
      <args> y[11][18] x[18] x[30] </args>
      <args> y[11][19] x[19] x[31] </args>
      <args> y[11][20] x[20] x[32] </args>
      <args> y[11][21] x[21] x[33] </args>
      <args> y[11][22] x[22] x[34] </args>
      <args> y[12][0] x[0] x[13] </args>
      <args> y[12][1] x[1] x[14] </args>
      <args> y[12][2] x[2] x[15] </args>
      <args> y[12][3] x[3] x[16] </args>
      <args> y[12][4] x[4] x[17] </args>
      <args> y[12][5] x[5] x[18] </args>
      <args> y[12][6] x[6] x[19] </args>
      <args> y[12][7] x[7] x[20] </args>
      <args> y[12][8] x[8] x[21] </args>
      <args> y[12][9] x[9] x[22] </args>
      <args> y[12][10] x[10] x[23] </args>
      <args> y[12][11] x[11] x[24] </args>
      <args> y[12][12] x[12] x[25] </args>
      <args> y[12][13] x[13] x[26] </args>
      <args> y[12][14] x[14] x[27] </args>
      <args> y[12][15] x[15] x[28] </args>
      <args> y[12][16] x[16] x[29] </args>
      <args> y[12][17] x[17] x[30] </args>
      <args> y[12][18] x[18] x[31] </args>
      <args> y[12][19] x[19] x[32] </args>
      <args> y[12][20] x[20] x[33] </args>
      <args> y[12][21] x[21] x[34] </args>
      <args> y[13][0] x[0] x[14] </args>
      <args> y[13][1] x[1] x[15] </args>
      <args> y[13][2] x[2] x[16] </args>
      <args> y[13][3] x[3] x[17] </args>
      <args> y[13][4] x[4] x[18] </args>
      <args> y[13][5] x[5] x[19] </args>
      <args> y[13][6] x[6] x[20] </args>
      <args> y[13][7] x[7] x[21] </args>
      <args> y[13][8] x[8] x[22] </args>
      <args> y[13][9] x[9] x[23] </args>
      <args> y[13][10] x[10] x[24] </args>
      <args> y[13][11] x[11] x[25] </args>
      <args> y[13][12] x[12] x[26] </args>
      <args> y[13][13] x[13] x[27] </args>
      <args> y[13][14] x[14] x[28] </args>
      <args> y[13][15] x[15] x[29] </args>
      <args> y[13][16] x[16] x[30] </args>
      <args> y[13][17] x[17] x[31] </args>
      <args> y[13][18] x[18] x[32] </args>
      <args> y[13][19] x[19] x[33] </args>
      <args> y[13][20] x[20] x[34] </args>
      <args> y[14][0] x[0] x[15] </args>
      <args> y[14][1] x[1] x[16] </args>
      <args> y[14][2] x[2] x[17] </args>
      <args> y[14][3] x[3] x[18] </args>
      <args> y[14][4] x[4] x[19] </args>
      <args> y[14][5] x[5] x[20] </args>
      <args> y[14][6] x[6] x[21] </args>
      <args> y[14][7] x[7] x[22] </args>
      <args> y[14][8] x[8] x[23] </args>
      <args> y[14][9] x[9] x[24] </args>
      <args> y[14][10] x[10] x[25] </args>
      <args> y[14][11] x[11] x[26] </args>
      <args> y[14][12] x[12] x[27] </args>
      <args> y[14][13] x[13] x[28] </args>
      <args> y[14][14] x[14] x[29] </args>
      <args> y[14][15] x[15] x[30] </args>
      <args> y[14][16] x[16] x[31] </args>
      <args> y[14][17] x[17] x[32] </args>
      <args> y[14][18] x[18] x[33] </args>
      <args> y[14][19] x[19] x[34] </args>
      <args> y[15][0] x[0] x[16] </args>
      <args> y[15][1] x[1] x[17] </args>
      <args> y[15][2] x[2] x[18] </args>
      <args> y[15][3] x[3] x[19] </args>
      <args> y[15][4] x[4] x[20] </args>
      <args> y[15][5] x[5] x[21] </args>
      <args> y[15][6] x[6] x[22] </args>
      <args> y[15][7] x[7] x[23] </args>
      <args> y[15][8] x[8] x[24] </args>
      <args> y[15][9] x[9] x[25] </args>
      <args> y[15][10] x[10] x[26] </args>
      <args> y[15][11] x[11] x[27] </args>
      <args> y[15][12] x[12] x[28] </args>
      <args> y[15][13] x[13] x[29] </args>
      <args> y[15][14] x[14] x[30] </args>
      <args> y[15][15] x[15] x[31] </args>
      <args> y[15][16] x[16] x[32] </args>
      <args> y[15][17] x[17] x[33] </args>
      <args> y[15][18] x[18] x[34] </args>
      <args> y[16][0] x[0] x[17] </args>
      <args> y[16][1] x[1] x[18] </args>
      <args> y[16][2] x[2] x[19] </args>
      <args> y[16][3] x[3] x[20] </args>
      <args> y[16][4] x[4] x[21] </args>
      <args> y[16][5] x[5] x[22] </args>
      <args> y[16][6] x[6] x[23] </args>
      <args> y[16][7] x[7] x[24] </args>
      <args> y[16][8] x[8] x[25] </args>
      <args> y[16][9] x[9] x[26] </args>
      <args> y[16][10] x[10] x[27] </args>
      <args> y[16][11] x[11] x[28] </args>
      <args> y[16][12] x[12] x[29] </args>
      <args> y[16][13] x[13] x[30] </args>
      <args> y[16][14] x[14] x[31] </args>
      <args> y[16][15] x[15] x[32] </args>
      <args> y[16][16] x[16] x[33] </args>
      <args> y[16][17] x[17] x[34] </args>
      <args> y[17][0] x[0] x[18] </args>
      <args> y[17][1] x[1] x[19] </args>
      <args> y[17][2] x[2] x[20] </args>
      <args> y[17][3] x[3] x[21] </args>
      <args> y[17][4] x[4] x[22] </args>
      <args> y[17][5] x[5] x[23] </args>
      <args> y[17][6] x[6] x[24] </args>
      <args> y[17][7] x[7] x[25] </args>
      <args> y[17][8] x[8] x[26] </args>
      <args> y[17][9] x[9] x[27] </args>
      <args> y[17][10] x[10] x[28] </args>
      <args> y[17][11] x[11] x[29] </args>
      <args> y[17][12] x[12] x[30] </args>
      <args> y[17][13] x[13] x[31] </args>
      <args> y[17][14] x[14] x[32] </args>
      <args> y[17][15] x[15] x[33] </args>
      <args> y[17][16] x[16] x[34] </args>
      <args> y[18][0] x[0] x[19] </args>
      <args> y[18][1] x[1] x[20] </args>
      <args> y[18][2] x[2] x[21] </args>
      <args> y[18][3] x[3] x[22] </args>
      <args> y[18][4] x[4] x[23] </args>
      <args> y[18][5] x[5] x[24] </args>
      <args> y[18][6] x[6] x[25] </args>
      <args> y[18][7] x[7] x[26] </args>
      <args> y[18][8] x[8] x[27] </args>
      <args> y[18][9] x[9] x[28] </args>
      <args> y[18][10] x[10] x[29] </args>
      <args> y[18][11] x[11] x[30] </args>
      <args> y[18][12] x[12] x[31] </args>
      <args> y[18][13] x[13] x[32] </args>
      <args> y[18][14] x[14] x[33] </args>
      <args> y[18][15] x[15] x[34] </args>
      <args> y[19][0] x[0] x[20] </args>
      <args> y[19][1] x[1] x[21] </args>
      <args> y[19][2] x[2] x[22] </args>
      <args> y[19][3] x[3] x[23] </args>
      <args> y[19][4] x[4] x[24] </args>
      <args> y[19][5] x[5] x[25] </args>
      <args> y[19][6] x[6] x[26] </args>
      <args> y[19][7] x[7] x[27] </args>
      <args> y[19][8] x[8] x[28] </args>
      <args> y[19][9] x[9] x[29] </args>
      <args> y[19][10] x[10] x[30] </args>
      <args> y[19][11] x[11] x[31] </args>
      <args> y[19][12] x[12] x[32] </args>
      <args> y[19][13] x[13] x[33] </args>
      <args> y[19][14] x[14] x[34] </args>
      <args> y[20][0] x[0] x[21] </args>
      <args> y[20][1] x[1] x[22] </args>
      <args> y[20][2] x[2] x[23] </args>
      <args> y[20][3] x[3] x[24] </args>
      <args> y[20][4] x[4] x[25] </args>
      <args> y[20][5] x[5] x[26] </args>
      <args> y[20][6] x[6] x[27] </args>
      <args> y[20][7] x[7] x[28] </args>
      <args> y[20][8] x[8] x[29] </args>
      <args> y[20][9] x[9] x[30] </args>
      <args> y[20][10] x[10] x[31] </args>
      <args> y[20][11] x[11] x[32] </args>
      <args> y[20][12] x[12] x[33] </args>
      <args> y[20][13] x[13] x[34] </args>
      <args> y[21][0] x[0] x[22] </args>
      <args> y[21][1] x[1] x[23] </args>
      <args> y[21][2] x[2] x[24] </args>
      <args> y[21][3] x[3] x[25] </args>
      <args> y[21][4] x[4] x[26] </args>
      <args> y[21][5] x[5] x[27] </args>
      <args> y[21][6] x[6] x[28] </args>
      <args> y[21][7] x[7] x[29] </args>
      <args> y[21][8] x[8] x[30] </args>
      <args> y[21][9] x[9] x[31] </args>
      <args> y[21][10] x[10] x[32] </args>
      <args> y[21][11] x[11] x[33] </args>
      <args> y[21][12] x[12] x[34] </args>
      <args> y[22][0] x[0] x[23] </args>
      <args> y[22][1] x[1] x[24] </args>
      <args> y[22][2] x[2] x[25] </args>
      <args> y[22][3] x[3] x[26] </args>
      <args> y[22][4] x[4] x[27] </args>
      <args> y[22][5] x[5] x[28] </args>
      <args> y[22][6] x[6] x[29] </args>
      <args> y[22][7] x[7] x[30] </args>
      <args> y[22][8] x[8] x[31] </args>
      <args> y[22][9] x[9] x[32] </args>
      <args> y[22][10] x[10] x[33] </args>
      <args> y[22][11] x[11] x[34] </args>
      <args> y[23][0] x[0] x[24] </args>
      <args> y[23][1] x[1] x[25] </args>
      <args> y[23][2] x[2] x[26] </args>
      <args> y[23][3] x[3] x[27] </args>
      <args> y[23][4] x[4] x[28] </args>
      <args> y[23][5] x[5] x[29] </args>
      <args> y[23][6] x[6] x[30] </args>
      <args> y[23][7] x[7] x[31] </args>
      <args> y[23][8] x[8] x[32] </args>
      <args> y[23][9] x[9] x[33] </args>
      <args> y[23][10] x[10] x[34] </args>
      <args> y[24][0] x[0] x[25] </args>
      <args> y[24][1] x[1] x[26] </args>
      <args> y[24][2] x[2] x[27] </args>
      <args> y[24][3] x[3] x[28] </args>
      <args> y[24][4] x[4] x[29] </args>
      <args> y[24][5] x[5] x[30] </args>
      <args> y[24][6] x[6] x[31] </args>
      <args> y[24][7] x[7] x[32] </args>
      <args> y[24][8] x[8] x[33] </args>
      <args> y[24][9] x[9] x[34] </args>
      <args> y[25][0] x[0] x[26] </args>
      <args> y[25][1] x[1] x[27] </args>
      <args> y[25][2] x[2] x[28] </args>
      <args> y[25][3] x[3] x[29] </args>
      <args> y[25][4] x[4] x[30] </args>
      <args> y[25][5] x[5] x[31] </args>
      <args> y[25][6] x[6] x[32] </args>
      <args> y[25][7] x[7] x[33] </args>
      <args> y[25][8] x[8] x[34] </args>
      <args> y[26][0] x[0] x[27] </args>
      <args> y[26][1] x[1] x[28] </args>
      <args> y[26][2] x[2] x[29] </args>
      <args> y[26][3] x[3] x[30] </args>
      <args> y[26][4] x[4] x[31] </args>
      <args> y[26][5] x[5] x[32] </args>
      <args> y[26][6] x[6] x[33] </args>
      <args> y[26][7] x[7] x[34] </args>
      <args> y[27][0] x[0] x[28] </args>
      <args> y[27][1] x[1] x[29] </args>
      <args> y[27][2] x[2] x[30] </args>
      <args> y[27][3] x[3] x[31] </args>
      <args> y[27][4] x[4] x[32] </args>
      <args> y[27][5] x[5] x[33] </args>
      <args> y[27][6] x[6] x[34] </args>
      <args> y[28][0] x[0] x[29] </args>
      <args> y[28][1] x[1] x[30] </args>
      <args> y[28][2] x[2] x[31] </args>
      <args> y[28][3] x[3] x[32] </args>
      <args> y[28][4] x[4] x[33] </args>
      <args> y[28][5] x[5] x[34] </args>
      <args> y[29][0] x[0] x[30] </args>
      <args> y[29][1] x[1] x[31] </args>
      <args> y[29][2] x[2] x[32] </args>
      <args> y[29][3] x[3] x[33] </args>
      <args> y[29][4] x[4] x[34] </args>
      <args> y[30][0] x[0] x[31] </args>
      <args> y[30][1] x[1] x[32] </args>
      <args> y[30][2] x[2] x[33] </args>
      <args> y[30][3] x[3] x[34] </args>
      <args> y[31][0] x[0] x[32] </args>
      <args> y[31][1] x[1] x[33] </args>
      <args> y[31][2] x[2] x[34] </args>
      <args> y[32][0] x[0] x[33] </args>
      <args> y[32][1] x[1] x[34] </args>
      <args> y[33][0] x[0] x[34] </args>
    </group>
    <sum>
      <list> y[0][] </list>
      <condition> (eq,c[0]) </condition>
    </sum>
    <sum>
      <list> y[1][0..32] </list>
      <condition> (eq,c[1]) </condition>
    </sum>
    <sum>
      <list> y[2][0..31] </list>
      <condition> (eq,c[2]) </condition>
    </sum>
    <sum>
      <list> y[3][0..30] </list>
      <condition> (eq,c[3]) </condition>
    </sum>
    <sum>
      <list> y[4][0..29] </list>
      <condition> (eq,c[4]) </condition>
    </sum>
    <sum>
      <list> y[5][0..28] </list>
      <condition> (eq,c[5]) </condition>
    </sum>
    <sum>
      <list> y[6][0..27] </list>
      <condition> (eq,c[6]) </condition>
    </sum>
    <sum>
      <list> y[7][0..26] </list>
      <condition> (eq,c[7]) </condition>
    </sum>
    <sum>
      <list> y[8][0..25] </list>
      <condition> (eq,c[8]) </condition>
    </sum>
    <sum>
      <list> y[9][0..24] </list>
      <condition> (eq,c[9]) </condition>
    </sum>
    <sum>
      <list> y[10][0..23] </list>
      <condition> (eq,c[10]) </condition>
    </sum>
    <sum>
      <list> y[11][0..22] </list>
      <condition> (eq,c[11]) </condition>
    </sum>
    <sum>
      <list> y[12][0..21] </list>
      <condition> (eq,c[12]) </condition>
    </sum>
    <sum>
      <list> y[13][0..20] </list>
      <condition> (eq,c[13]) </condition>
    </sum>
    <sum>
      <list> y[14][0..19] </list>
      <condition> (eq,c[14]) </condition>
    </sum>
    <sum>
      <list> y[15][0..18] </list>
      <condition> (eq,c[15]) </condition>
    </sum>
    <sum>
      <list> y[16][0..17] </list>
      <condition> (eq,c[16]) </condition>
    </sum>
    <sum>
      <list> y[17][0..16] </list>
      <condition> (eq,c[17]) </condition>
    </sum>
    <sum>
      <list> y[18][0..15] </list>
      <condition> (eq,c[18]) </condition>
    </sum>
    <sum>
      <list> y[19][0..14] </list>
      <condition> (eq,c[19]) </condition>
    </sum>
    <sum>
      <list> y[20][0..13] </list>
      <condition> (eq,c[20]) </condition>
    </sum>
    <sum>
      <list> y[21][0..12] </list>
      <condition> (eq,c[21]) </condition>
    </sum>
    <sum>
      <list> y[22][0..11] </list>
      <condition> (eq,c[22]) </condition>
    </sum>
    <sum>
      <list> y[23][0..10] </list>
      <condition> (eq,c[23]) </condition>
    </sum>
    <sum>
      <list> y[24][0..9] </list>
      <condition> (eq,c[24]) </condition>
    </sum>
    <sum>
      <list> y[25][0..8] </list>
      <condition> (eq,c[25]) </condition>
    </sum>
    <sum>
      <list> y[26][0..7] </list>
      <condition> (eq,c[26]) </condition>
    </sum>
    <sum>
      <list> y[27][0..6] </list>
      <condition> (eq,c[27]) </condition>
    </sum>
    <sum>
      <list> y[28][0..5] </list>
      <condition> (eq,c[28]) </condition>
    </sum>
    <sum>
      <list> y[29][0..4] </list>
      <condition> (eq,c[29]) </condition>
    </sum>
    <sum>
      <list> y[30][0..3] </list>
      <condition> (eq,c[30]) </condition>
    </sum>
    <sum>
      <list> y[31][0..2] </list>
      <condition> (eq,c[31]) </condition>
    </sum>
    <sum>
      <list> y[32][0] y[32][1] </list>
      <condition> (eq,c[32]) </condition>
    </sum>
    <sum>
      <list> y[33][0] </list>
      <condition> (eq,c[33]) </condition>
    </sum>
    <group>
      <intension> eq(%0,mul(%1,%2)) </intension>
      <args> s[0] c[0] c[0] </args>
      <args> s[1] c[1] c[1] </args>
      <args> s[2] c[2] c[2] </args>
      <args> s[3] c[3] c[3] </args>
      <args> s[4] c[4] c[4] </args>
      <args> s[5] c[5] c[5] </args>
      <args> s[6] c[6] c[6] </args>
      <args> s[7] c[7] c[7] </args>
      <args> s[8] c[8] c[8] </args>
      <args> s[9] c[9] c[9] </args>
      <args> s[10] c[10] c[10] </args>
      <args> s[11] c[11] c[11] </args>
      <args> s[12] c[12] c[12] </args>
      <args> s[13] c[13] c[13] </args>
      <args> s[14] c[14] c[14] </args>
      <args> s[15] c[15] c[15] </args>
      <args> s[16] c[16] c[16] </args>
      <args> s[17] c[17] c[17] </args>
      <args> s[18] c[18] c[18] </args>
      <args> s[19] c[19] c[19] </args>
      <args> s[20] c[20] c[20] </args>
      <args> s[21] c[21] c[21] </args>
      <args> s[22] c[22] c[22] </args>
      <args> s[23] c[23] c[23] </args>
      <args> s[24] c[24] c[24] </args>
      <args> s[25] c[25] c[25] </args>
      <args> s[26] c[26] c[26] </args>
      <args> s[27] c[27] c[27] </args>
      <args> s[28] c[28] c[28] </args>
      <args> s[29] c[29] c[29] </args>
      <args> s[30] c[30] c[30] </args>
      <args> s[31] c[31] c[31] </args>
      <args> s[32] c[32] c[32] </args>
      <args> s[33] c[33] c[33] </args>
    </group>
  </constraints>
  <objectives>
    <minimize type="sum"> s[] </minimize>
  </objectives>
</instance>
